
%FILE DATA:	Soccer Computational Problem for MiniZinc Models	%
%AUTHOR:	Jack Wall	%
%CONTACT:  	116397063@umail.ucc.ie			%
%LAST UPDATE:	03/03/2020, 12:07:43						%
%DESCRIPTION: 	77 games played with 33 games left				%


n=11; %number of teams

%Games to play
games=[|4,11|2,8|9,7|3,10|10,8|5,6|6,1|2,10|7,11|8,6|5,10|5,8|6,9|9,2|6,3|6,4|9,3|11,7|4,1|2,3|2,5|1,10|6,5|9,5|5,7|9,1|1,11|7,2|6,11|4,9|11,6|11,3|1,7|];

%Initial points
iPoints=[14,16,21,31,16,20,20,19,17,16,21];

%POSITION CONSTRAINTS
% [|teamID, operator, position|...]
% operators index:
%  1 for =  operator
%  2 for >  operator
%  3 for >= operator
%  4 for <  operator
%  5 for <= operator
positionConstraints=[|4,5,1|11,1,2|8,1,3|3,1,4|9,2,4|];